problem_generation/data/GISP/train/er_n=68_m=1372_p=0.60_SET2_setparam=100.00_alpha=0.50_912.lp
maximize
OBJ:100x0 + 100x1 + 100x2 + 100x3 + 100x4 + 100x5 + 100x6 + 100x7 + 100x8 + 100x9 + 100x10 + 100x11 + 100x12 + 100x13 + 100x14 + 100x15 + 100x16 + 100x17 + 100x18 + 100x19 + 100x20 + 100x21 + 100x22 + 100x23 + 100x24 + 100x25 + 100x26 + 100x27 + 100x28 + 100x29 + 100x30 + 100x31 + 100x32 + 100x33 + 100x34 + 100x35 + 100x36 + 100x37 + 100x38 + 100x39 + 100x40 + 100x41 + 100x42 + 100x43 + 100x44 + 100x45 + 100x46 + 100x47 + 100x48 + 100x49 + 100x50 + 100x51 + 100x52 + 100x53 + 100x54 + 100x55 + 100x56 + 100x57 + 100x58 + 100x59 + 100x60 + 100x61 + 100x62 + 100x63 + 100x64 + 100x65 + 100x66 + 100x67 - y15_30 - y26_30 - y55_66 - y7_26 - y36_62 - y18_35 - y5_65 - y29_32 - y21_37 - y6_48 - y11_23 - y40_59 - y33_38 - y33_47 - y44_47 - y3_6 - y10_54 - y33_56 - y2_50 - y25_52 - y10_63 - y43_60 - y22_37 - y3_33 - y35_65 - y47_48 - y55_61 - y17_44 - y17_53 - y18_30 - y6_43 - y29_54 - y6_61 - y10_22 - y10_31 - y2_27 - y25_38 - y14_19 - y43_55 - y22_32 - y3_28 - y13_60 - y24_60 - y35_60 - y36_43 - y55_56 - y36_52 - y17_48 - y28_48 - y59_63 - y9_53 - y28_66 - y58_67 - y48_53 - y2_13 - y54_60 - y33_37 - y20_67 - y31_67 - y10_44 - y12_63 - y3_5 - y51_54 - y2_49 - y3_14 - y1_53 - y13_55 - y7_11 - y5_41 - y47_65 - y58_62 - y6_33 - y9_66 - y61_67 - y40_44 - y42_63 - y6_51 - y10_21 - y2_17 - y10_30 - y20_62 - y12_58 - y2_35 - y51_58 - y24_41 - y16_37 - y24_50 - y43_63 - y13_59 - y24_59 - y16_55 - y16_64 - y5_27 - y28_29 - y36_51 - y9_52 - y5_63 - y58_66 - y50_62 - y61_62 - y6_37 - y19_65 - y2_3 - y10_25 - y12_44 - y20_57 - y31_57 - y54_59 - y12_53 - y2_30 - y12_62 - y13_36 - y35_36 - y32_49 - y16_32 - y24_45 - y32_58 - y1_52 - y24_54 - y1_61 - y9_11 - y5_22 - y46_60 - y28_33 - y9_29 - y5_40 - y17_42 - y6_23 - y6_32 - y20_34 - y10_11 - y2_7 - y20_43 - y31_43 - y20_52 - y12_48 - y23_48 - y54_63 - y12_57 - y13_22 - y4_53 - y23_66 - y13_31 - y53_67 - y64_67 - y13_40 - y24_40 - y35_49 - y16_45 - y46_55 - y5_26 - y57_64 - y9_24 - y49_60 - y5_35 - y26_67 - y5_44 - y27_41 - y27_50 - y8_46 - y30_55 - y42_57 - y8_64 - y31_38 - y39_51 - y23_34 - y31_47 - y20_56 - y4_39 - y13_17 - y4_48 - y1_24 - y13_26 - y24_26 - y16_31 - y13_44 - y37_63 - y1_51 - y16_49 - y5_12 - y9_10 - y38_55 - y15_62 - y18_58 - y27_36 - y6_13 - y27_54 - y50_56 - y27_63 - y30_59 - y42_61 - y0_55 - y12_20 - y20_33 - y20_42 - y12_56 - y1_19 - y45_53 - y1_28 - y24_30 - y53_66 - y56_62 - y14_65 - y38_41 - y65_67 - y5_25 - y57_63 - y49_59 - y7_53 - y15_66 - y26_66 - y8_27 - y19_27 - y30_36 - y30_45 - y30_54 - y11_50 - y0_59 - y12_24 - y39_41 - y31_37 - y52_60 - y4_29 - y33_65 - y12_42 - y1_5 - y23_42 - y4_38 - y4_47 - y34_48 - y53_61 - y37_44 - y16_21 - y22_55 - y3_51 - y56_66 - y46_49 - y18_39 - y26_52 - y49_63 - y19_22 - y7_66 - y63_65 - y30_40 - y0_36 - y4_6 - y0_54 - y41_55 - y31_32 - y33_60 - y4_33 - y1_9 - y25_65 - y34_43 - y22_50 - y34_52 - y37_48 - y3_55 - y14_55 - y37_57 - y15_29 - y5_6 - y15_38 - y7_34 - y15_47 - y38_49 - y0_4 - y18_52 - y27_30 - y0_13 - y7_61 - y19_26 - y11_22 - y29_67 - y30_44 - y11_40 - y12_14 - y41_50 - y12_23 - y41_59 - y52_59 - y10_53 - y10_62 - y1_4 - y34_38 - y3_32 - y22_63 - y3_59 - y26_33 - y18_29 - y18_38 - y18_56 - y0_17 - y21_58 - y11_35 - y33_41 - y41_54 - y52_63 - y25_46 - y44_59 - y3_27 - y14_36 - y37_47 - y15_19 - y7_15 - y14_63 - y26_28 - y47_60 - y28_65 - y7_42 - y18_42 - y29_39 - y0_12 - y29_48 - y19_25 - y21_44 - y48_61 - y0_21 - y29_57 - y21_62 - y25_32 - y4_9 - y41_58 - y52_58 - y10_52 - y10_61 - y51_62 - y22_35 - y3_31 - y14_31 - y32_67 - y55_59 - y7_19 - y18_19 - y26_32 - y47_55 - y18_28 - y7_37 - y18_37 - y0_7 - y29_43 - y48_56 - y21_39 - y6_50 - y11_16 - y29_52 - y21_48 - y40_52 - y21_57 - y21_66 - y62_67 - y25_27 - y10_38 - y2_34 - y25_36 - y51_57 - y2_52 - y32_53 - y51_66 - y24_67 - y7_23 - y9_42 - y18_23 - y47_59 - y59_61 - y5_62 - y6_27 - y28_64 - y6_36 - y40_56 - y10_15 - y10_24 - y54_58 - y10_33 - y10_42 - y2_38 - y2_47 - y51_61 - y2_56 - y3_21 - y14_21 - y32_57 - y43_57 - y1_60 - y16_67 - y17_41 - y28_41 - y17_50 - y36_63 - y9_46 - y17_59 - y6_22 - y28_59 - y9_55 - y29_33 - y9_64 - y29_42 - y29_51 - y40_51 - y10_19 - y2_15 - y62_66 - y25_26 - y10_37 - y2_33 - y32_34 - y12_65 - y3_16 - y14_16 - y43_52 - y51_65 - y14_25 - y16_44 - y13_57 - y13_66 - y24_66 - y35_66 - y9_32 - y6_8 - y47_58 - y9_41 - y9_50 - y6_26 - y6_44 - y42_65 - y10_14 - y2_10 - y31_55 - y54_57 - y24_34 - y3_11 - y24_43 - y35_43 - y32_56 - y16_39 - y43_56 - y1_50 - y43_65 - y16_57 - y17_22 - y16_66 - y5_29 - y28_31 - y5_38 - y17_40 - y28_40 - y17_49 - y6_12 - y9_45 - y5_56 - y6_21 - y9_54 - y21_28 - y8_58 - y42_60 - y19_67 - y0_63 - y2_14 - y31_50 - y62_65 - y12_46 - y23_46 - y2_23 - y54_61 - y1_27 - y24_29 - y51_55 - y24_38 - y35_38 - y32_51 - y13_47 - y16_52 - y46_53 - y1_63 - y49_58 - y17_35 - y28_35 - y28_44 - y9_40 - y27_48 - y6_25 - y50_59 - y19_53 - y42_55 - y8_62 - y20_27 - y30_62 - y0_58 - y39_40 - y39_49 - y31_45 - y12_41 - y2_18 - y20_54 - y39_67 - y23_50 - y13_15 - y54_56 - y4_46 - y23_59 - y13_24 - y1_22 - y32_37 - y53_60 - y45_65 - y1_40 - y35_42 - y24_51 - y46_48 - y1_58 - y17_21 - y17_30 - y26_60 - y38_62 - y7_65 - y6_20 - y8_39 - y19_39 - y50_54 - y27_61 - y61_63 - y19_57 - y42_59 - y0_62 - y39_53 - y4_32 - y23_45 - y20_58 - y53_55 - y13_28 - y4_59 - y13_37 - y46_52 - y46_61 - y9_21 - y49_57 - y5_32 - y38_66 - y49_66 - y27_38 - y19_34 - y8_43 - y30_43 - y42_45 - y8_52 - y42_54 - y0_48 - y8_61 - y19_61 - y12_22 - y0_66 - y20_44 - y12_49 - y23_49 - y34_46 - y1_21 - y53_59 - y4_54 - y34_55 - y45_55 - y16_28 - y1_39 - y3_58 - y37_60 - y15_50 - y26_50 - y18_46 - y49_61 - y19_20 - y27_33 - y11_25 - y8_38 - y8_47 - y11_43 - y30_56 - y0_52 - y12_17 - y41_53 - y20_30 - y60_66 - y12_26 - y31_39 - y33_58 - y12_35 - y33_67 - y25_63 - y1_16 - y13_18 - y53_54 - y22_48 - y45_59 - y37_55 - y3_62 - y15_36 - y46_51 - y18_32 - y15_45 - y38_47 - y18_41 - y26_54 - y38_56 - y7_50 - y8_15 - y27_28 - y0_11 - y7_59 - y0_20 - y40_65 - y8_42 - y11_38 - y20_25 - y4_8 - y41_57 - y52_57 - y4_17 - y52_66 - y22_43 - y34_45 - y14_39 - y37_41 - y37_59 - y15_22 - y14_66 - y37_49 - y26_49 - y18_45 - y26_58 - y0_6 - y7_54 - y48_55 - y8_28 - y0_24 - y8_37 - y0_42 - y33_39 - y41_52 - y33_48 - y25_44 - y10_55 - y44_57 - y44_66 - y22_38 - y37_54 - y7_13 - y14_61 - y15_26 - y18_22 - y15_35 - y7_31 - y47_67 - y17_63 - y7_40 - y18_49 - y29_46 - y40_64 - y21_60 - y25_30 - y10_41 - y10_50 - y41_65 - y44_61 - y22_33 - y2_64 - y37_40 - y14_47
 Subject to
C1: x0+x1 <=1 
C2: x0+x3 <=1 
C3: x0+x4-y0_4 <=1 
C4: x0+x6-y0_6 <=1 
C5: x0+x7-y0_7 <=1 
C6: x0+x11-y0_11 <=1 
C7: x0+x12-y0_12 <=1 
C8: x0+x13-y0_13 <=1 
C9: x0+x14 <=1 
C10: x0+x17-y0_17 <=1 
C11: x0+x18 <=1 
C12: x0+x19 <=1 
C13: x0+x20-y0_20 <=1 
C14: x0+x21-y0_21 <=1 
C15: x0+x22 <=1 
C16: x0+x23 <=1 
C17: x0+x24-y0_24 <=1 
C18: x0+x27 <=1 
C19: x0+x28 <=1 
C20: x0+x30 <=1 
C21: x0+x31 <=1 
C22: x0+x32 <=1 
C23: x0+x33 <=1 
C24: x0+x34 <=1 
C25: x0+x36-y0_36 <=1 
C26: x0+x42-y0_42 <=1 
C27: x0+x44 <=1 
C28: x0+x46 <=1 
C29: x0+x48-y0_48 <=1 
C30: x0+x49 <=1 
C31: x0+x50 <=1 
C32: x0+x51 <=1 
C33: x0+x52-y0_52 <=1 
C34: x0+x53 <=1 
C35: x0+x54-y0_54 <=1 
C36: x0+x55-y0_55 <=1 
C37: x0+x58-y0_58 <=1 
C38: x0+x59-y0_59 <=1 
C39: x0+x62-y0_62 <=1 
C40: x0+x63-y0_63 <=1 
C41: x0+x66-y0_66 <=1 
C42: x0+x67 <=1 
C43: x1+x2 <=1 
C44: x1+x4-y1_4 <=1 
C45: x1+x5-y1_5 <=1 
C46: x1+x8 <=1 
C47: x1+x9-y1_9 <=1 
C48: x1+x10 <=1 
C49: x1+x11 <=1 
C50: x1+x12 <=1 
C51: x1+x13 <=1 
C52: x1+x15 <=1 
C53: x1+x16-y1_16 <=1 
C54: x1+x17 <=1 
C55: x1+x19-y1_19 <=1 
C56: x1+x21-y1_21 <=1 
C57: x1+x22-y1_22 <=1 
C58: x1+x23 <=1 
C59: x1+x24-y1_24 <=1 
C60: x1+x26 <=1 
C61: x1+x27-y1_27 <=1 
C62: x1+x28-y1_28 <=1 
C63: x1+x31 <=1 
C64: x1+x32 <=1 
C65: x1+x33 <=1 
C66: x1+x35 <=1 
C67: x1+x37 <=1 
C68: x1+x39-y1_39 <=1 
C69: x1+x40-y1_40 <=1 
C70: x1+x42 <=1 
C71: x1+x44 <=1 
C72: x1+x46 <=1 
C73: x1+x48 <=1 
C74: x1+x50-y1_50 <=1 
C75: x1+x51-y1_51 <=1 
C76: x1+x52-y1_52 <=1 
C77: x1+x53-y1_53 <=1 
C78: x1+x57 <=1 
C79: x1+x58-y1_58 <=1 
C80: x1+x60-y1_60 <=1 
C81: x1+x61-y1_61 <=1 
C82: x1+x63-y1_63 <=1 
C83: x1+x67 <=1 
C84: x2+x3-y2_3 <=1 
C85: x2+x6 <=1 
C86: x2+x7-y2_7 <=1 
C87: x2+x9 <=1 
C88: x2+x10-y2_10 <=1 
C89: x2+x12 <=1 
C90: x2+x13-y2_13 <=1 
C91: x2+x14-y2_14 <=1 
C92: x2+x15-y2_15 <=1 
C93: x2+x17-y2_17 <=1 
C94: x2+x18-y2_18 <=1 
C95: x2+x19 <=1 
C96: x2+x20 <=1 
C97: x2+x23-y2_23 <=1 
C98: x2+x26 <=1 
C99: x2+x27-y2_27 <=1 
C100: x2+x28 <=1 
C101: x2+x30-y2_30 <=1 
C102: x2+x32 <=1 
C103: x2+x33-y2_33 <=1 
C104: x2+x34-y2_34 <=1 
C105: x2+x35-y2_35 <=1 
C106: x2+x36 <=1 
C107: x2+x38-y2_38 <=1 
C108: x2+x41 <=1 
C109: x2+x46 <=1 
C110: x2+x47-y2_47 <=1 
C111: x2+x49-y2_49 <=1 
C112: x2+x50-y2_50 <=1 
C113: x2+x52-y2_52 <=1 
C114: x2+x53 <=1 
C115: x2+x55 <=1 
C116: x2+x56-y2_56 <=1 
C117: x2+x58 <=1 
C118: x2+x60 <=1 
C119: x2+x63 <=1 
C120: x2+x64-y2_64 <=1 
C121: x2+x67 <=1 
C122: x3+x4 <=1 
C123: x3+x5-y3_5 <=1 
C124: x3+x6-y3_6 <=1 
C125: x3+x7 <=1 
C126: x3+x8 <=1 
C127: x3+x11-y3_11 <=1 
C128: x3+x14-y3_14 <=1 
C129: x3+x16-y3_16 <=1 
C130: x3+x21-y3_21 <=1 
C131: x3+x22 <=1 
C132: x3+x23 <=1 
C133: x3+x24 <=1 
C134: x3+x26 <=1 
C135: x3+x27-y3_27 <=1 
C136: x3+x28-y3_28 <=1 
C137: x3+x29 <=1 
C138: x3+x30 <=1 
C139: x3+x31-y3_31 <=1 
C140: x3+x32-y3_32 <=1 
C141: x3+x33-y3_33 <=1 
C142: x3+x34 <=1 
C143: x3+x35 <=1 
C144: x3+x40 <=1 
C145: x3+x44 <=1 
C146: x3+x50 <=1 
C147: x3+x51-y3_51 <=1 
C148: x3+x52 <=1 
C149: x3+x55-y3_55 <=1 
C150: x3+x57 <=1 
C151: x3+x58-y3_58 <=1 
C152: x3+x59-y3_59 <=1 
C153: x3+x60 <=1 
C154: x3+x62-y3_62 <=1 
C155: x3+x65 <=1 
C156: x4+x6-y4_6 <=1 
C157: x4+x8-y4_8 <=1 
C158: x4+x9-y4_9 <=1 
C159: x4+x10 <=1 
C160: x4+x12 <=1 
C161: x4+x15 <=1 
C162: x4+x16 <=1 
C163: x4+x17-y4_17 <=1 
C164: x4+x21 <=1 
C165: x4+x22 <=1 
C166: x4+x23 <=1 
C167: x4+x24 <=1 
C168: x4+x25 <=1 
C169: x4+x27 <=1 
C170: x4+x28 <=1 
C171: x4+x29-y4_29 <=1 
C172: x4+x30 <=1 
C173: x4+x32-y4_32 <=1 
C174: x4+x33-y4_33 <=1 
C175: x4+x34 <=1 
C176: x4+x38-y4_38 <=1 
C177: x4+x39-y4_39 <=1 
C178: x4+x45 <=1 
C179: x4+x46-y4_46 <=1 
C180: x4+x47-y4_47 <=1 
C181: x4+x48-y4_48 <=1 
C182: x4+x52 <=1 
C183: x4+x53-y4_53 <=1 
C184: x4+x54-y4_54 <=1 
C185: x4+x55 <=1 
C186: x4+x56 <=1 
C187: x4+x59-y4_59 <=1 
C188: x4+x60 <=1 
C189: x4+x62 <=1 
C190: x4+x63 <=1 
C191: x4+x64 <=1 
C192: x4+x65 <=1 
C193: x4+x66 <=1 
C194: x5+x6-y5_6 <=1 
C195: x5+x7 <=1 
C196: x5+x8 <=1 
C197: x5+x11 <=1 
C198: x5+x12-y5_12 <=1 
C199: x5+x13 <=1 
C200: x5+x15 <=1 
C201: x5+x18 <=1 
C202: x5+x19 <=1 
C203: x5+x22-y5_22 <=1 
C204: x5+x25-y5_25 <=1 
C205: x5+x26-y5_26 <=1 
C206: x5+x27-y5_27 <=1 
C207: x5+x28 <=1 
C208: x5+x29-y5_29 <=1 
C209: x5+x30 <=1 
C210: x5+x32-y5_32 <=1 
C211: x5+x33 <=1 
C212: x5+x35-y5_35 <=1 
C213: x5+x37 <=1 
C214: x5+x38-y5_38 <=1 
C215: x5+x40-y5_40 <=1 
C216: x5+x41-y5_41 <=1 
C217: x5+x44-y5_44 <=1 
C218: x5+x45 <=1 
C219: x5+x46 <=1 
C220: x5+x51 <=1 
C221: x5+x52 <=1 
C222: x5+x56-y5_56 <=1 
C223: x5+x58 <=1 
C224: x5+x59 <=1 
C225: x5+x62-y5_62 <=1 
C226: x5+x63-y5_63 <=1 
C227: x5+x65-y5_65 <=1 
C228: x5+x67 <=1 
C229: x6+x8-y6_8 <=1 
C230: x6+x10 <=1 
C231: x6+x12-y6_12 <=1 
C232: x6+x13-y6_13 <=1 
C233: x6+x16 <=1 
C234: x6+x18 <=1 
C235: x6+x20-y6_20 <=1 
C236: x6+x21-y6_21 <=1 
C237: x6+x22-y6_22 <=1 
C238: x6+x23-y6_23 <=1 
C239: x6+x25-y6_25 <=1 
C240: x6+x26-y6_26 <=1 
C241: x6+x27-y6_27 <=1 
C242: x6+x28 <=1 
C243: x6+x31 <=1 
C244: x6+x32-y6_32 <=1 
C245: x6+x33-y6_33 <=1 
C246: x6+x34 <=1 
C247: x6+x36-y6_36 <=1 
C248: x6+x37-y6_37 <=1 
C249: x6+x39 <=1 
C250: x6+x40 <=1 
C251: x6+x41 <=1 
C252: x6+x43-y6_43 <=1 
C253: x6+x44-y6_44 <=1 
C254: x6+x45 <=1 
C255: x6+x47 <=1 
C256: x6+x48-y6_48 <=1 
C257: x6+x50-y6_50 <=1 
C258: x6+x51-y6_51 <=1 
C259: x6+x53 <=1 
C260: x6+x54 <=1 
C261: x6+x56 <=1 
C262: x6+x58 <=1 
C263: x6+x59 <=1 
C264: x6+x60 <=1 
C265: x6+x61-y6_61 <=1 
C266: x6+x62 <=1 
C267: x6+x64 <=1 
C268: x7+x8 <=1 
C269: x7+x11-y7_11 <=1 
C270: x7+x12 <=1 
C271: x7+x13-y7_13 <=1 
C272: x7+x15-y7_15 <=1 
C273: x7+x17 <=1 
C274: x7+x18 <=1 
C275: x7+x19-y7_19 <=1 
C276: x7+x20 <=1 
C277: x7+x22 <=1 
C278: x7+x23-y7_23 <=1 
C279: x7+x24 <=1 
C280: x7+x25 <=1 
C281: x7+x26-y7_26 <=1 
C282: x7+x27 <=1 
C283: x7+x30 <=1 
C284: x7+x31-y7_31 <=1 
C285: x7+x33 <=1 
C286: x7+x34-y7_34 <=1 
C287: x7+x36 <=1 
C288: x7+x37-y7_37 <=1 
C289: x7+x39 <=1 
C290: x7+x40-y7_40 <=1 
C291: x7+x42-y7_42 <=1 
C292: x7+x43 <=1 
C293: x7+x44 <=1 
C294: x7+x48 <=1 
C295: x7+x50-y7_50 <=1 
C296: x7+x52 <=1 
C297: x7+x53-y7_53 <=1 
C298: x7+x54-y7_54 <=1 
C299: x7+x56 <=1 
C300: x7+x57 <=1 
C301: x7+x59-y7_59 <=1 
C302: x7+x61-y7_61 <=1 
C303: x7+x63 <=1 
C304: x7+x64 <=1 
C305: x7+x65-y7_65 <=1 
C306: x7+x66-y7_66 <=1 
C307: x7+x67 <=1 
C308: x8+x12 <=1 
C309: x8+x15-y8_15 <=1 
C310: x8+x16 <=1 
C311: x8+x18 <=1 
C312: x8+x19 <=1 
C313: x8+x20 <=1 
C314: x8+x21 <=1 
C315: x8+x22 <=1 
C316: x8+x24 <=1 
C317: x8+x25 <=1 
C318: x8+x27-y8_27 <=1 
C319: x8+x28-y8_28 <=1 
C320: x8+x29 <=1 
C321: x8+x30 <=1 
C322: x8+x31 <=1 
C323: x8+x33 <=1 
C324: x8+x37-y8_37 <=1 
C325: x8+x38-y8_38 <=1 
C326: x8+x39-y8_39 <=1 
C327: x8+x42-y8_42 <=1 
C328: x8+x43-y8_43 <=1 
C329: x8+x45 <=1 
C330: x8+x46-y8_46 <=1 
C331: x8+x47-y8_47 <=1 
C332: x8+x50 <=1 
C333: x8+x52-y8_52 <=1 
C334: x8+x53 <=1 
C335: x8+x58-y8_58 <=1 
C336: x8+x61-y8_61 <=1 
C337: x8+x62-y8_62 <=1 
C338: x8+x63 <=1 
C339: x8+x64-y8_64 <=1 
C340: x8+x65 <=1 
C341: x8+x67 <=1 
C342: x9+x10-y9_10 <=1 
C343: x9+x11-y9_11 <=1 
C344: x9+x13 <=1 
C345: x9+x16 <=1 
C346: x9+x17 <=1 
C347: x9+x18 <=1 
C348: x9+x19 <=1 
C349: x9+x20 <=1 
C350: x9+x21-y9_21 <=1 
C351: x9+x22 <=1 
C352: x9+x24-y9_24 <=1 
C353: x9+x26 <=1 
C354: x9+x27 <=1 
C355: x9+x28 <=1 
C356: x9+x29-y9_29 <=1 
C357: x9+x30 <=1 
C358: x9+x32-y9_32 <=1 
C359: x9+x35 <=1 
C360: x9+x36 <=1 
C361: x9+x39 <=1 
C362: x9+x40-y9_40 <=1 
C363: x9+x41-y9_41 <=1 
C364: x9+x42-y9_42 <=1 
C365: x9+x43 <=1 
C366: x9+x45-y9_45 <=1 
C367: x9+x46-y9_46 <=1 
C368: x9+x47 <=1 
C369: x9+x48 <=1 
C370: x9+x50-y9_50 <=1 
C371: x9+x51 <=1 
C372: x9+x52-y9_52 <=1 
C373: x9+x53-y9_53 <=1 
C374: x9+x54-y9_54 <=1 
C375: x9+x55-y9_55 <=1 
C376: x9+x58 <=1 
C377: x9+x61 <=1 
C378: x9+x64-y9_64 <=1 
C379: x9+x65 <=1 
C380: x9+x66-y9_66 <=1 
C381: x10+x11-y10_11 <=1 
C382: x10+x12 <=1 
C383: x10+x14-y10_14 <=1 
C384: x10+x15-y10_15 <=1 
C385: x10+x16 <=1 
C386: x10+x19-y10_19 <=1 
C387: x10+x21-y10_21 <=1 
C388: x10+x22-y10_22 <=1 
C389: x10+x23 <=1 
C390: x10+x24-y10_24 <=1 
C391: x10+x25-y10_25 <=1 
C392: x10+x26 <=1 
C393: x10+x29 <=1 
C394: x10+x30-y10_30 <=1 
C395: x10+x31-y10_31 <=1 
C396: x10+x32 <=1 
C397: x10+x33-y10_33 <=1 
C398: x10+x35 <=1 
C399: x10+x37-y10_37 <=1 
C400: x10+x38-y10_38 <=1 
C401: x10+x40 <=1 
C402: x10+x41-y10_41 <=1 
C403: x10+x42-y10_42 <=1 
C404: x10+x43 <=1 
C405: x10+x44-y10_44 <=1 
C406: x10+x45 <=1 
C407: x10+x47 <=1 
C408: x10+x49 <=1 
C409: x10+x50-y10_50 <=1 
C410: x10+x51 <=1 
C411: x10+x52-y10_52 <=1 
C412: x10+x53-y10_53 <=1 
C413: x10+x54-y10_54 <=1 
C414: x10+x55-y10_55 <=1 
C415: x10+x57 <=1 
C416: x10+x61-y10_61 <=1 
C417: x10+x62-y10_62 <=1 
C418: x10+x63-y10_63 <=1 
C419: x10+x64 <=1 
C420: x11+x12 <=1 
C421: x11+x13 <=1 
C422: x11+x16-y11_16 <=1 
C423: x11+x20 <=1 
C424: x11+x21 <=1 
C425: x11+x22-y11_22 <=1 
C426: x11+x23-y11_23 <=1 
C427: x11+x24 <=1 
C428: x11+x25-y11_25 <=1 
C429: x11+x26 <=1 
C430: x11+x28 <=1 
C431: x11+x29 <=1 
C432: x11+x31 <=1 
C433: x11+x34 <=1 
C434: x11+x35-y11_35 <=1 
C435: x11+x38-y11_38 <=1 
C436: x11+x40-y11_40 <=1 
C437: x11+x42 <=1 
C438: x11+x43-y11_43 <=1 
C439: x11+x45 <=1 
C440: x11+x46 <=1 
C441: x11+x47 <=1 
C442: x11+x48 <=1 
C443: x11+x49 <=1 
C444: x11+x50-y11_50 <=1 
C445: x11+x53 <=1 
C446: x11+x55 <=1 
C447: x11+x58 <=1 
C448: x11+x59 <=1 
C449: x11+x60 <=1 
C450: x11+x61 <=1 
C451: x11+x63 <=1 
C452: x11+x64 <=1 
C453: x11+x66 <=1 
C454: x12+x14-y12_14 <=1 
C455: x12+x17-y12_17 <=1 
C456: x12+x18 <=1 
C457: x12+x19 <=1 
C458: x12+x20-y12_20 <=1 
C459: x12+x21 <=1 
C460: x12+x22-y12_22 <=1 
C461: x12+x23-y12_23 <=1 
C462: x12+x24-y12_24 <=1 
C463: x12+x26-y12_26 <=1 
C464: x12+x27 <=1 
C465: x12+x28 <=1 
C466: x12+x32 <=1 
C467: x12+x34 <=1 
C468: x12+x35-y12_35 <=1 
C469: x12+x36 <=1 
C470: x12+x37 <=1 
C471: x12+x40 <=1 
C472: x12+x41-y12_41 <=1 
C473: x12+x42-y12_42 <=1 
C474: x12+x43 <=1 
C475: x12+x44-y12_44 <=1 
C476: x12+x45 <=1 
C477: x12+x46-y12_46 <=1 
C478: x12+x48-y12_48 <=1 
C479: x12+x49-y12_49 <=1 
C480: x12+x51 <=1 
C481: x12+x53-y12_53 <=1 
C482: x12+x56-y12_56 <=1 
C483: x12+x57-y12_57 <=1 
C484: x12+x58-y12_58 <=1 
C485: x12+x61 <=1 
C486: x12+x62-y12_62 <=1 
C487: x12+x63-y12_63 <=1 
C488: x12+x64 <=1 
C489: x12+x65-y12_65 <=1 
C490: x12+x66 <=1 
C491: x12+x67 <=1 
C492: x13+x14 <=1 
C493: x13+x15-y13_15 <=1 
C494: x13+x17-y13_17 <=1 
C495: x13+x18-y13_18 <=1 
C496: x13+x20 <=1 
C497: x13+x22-y13_22 <=1 
C498: x13+x24-y13_24 <=1 
C499: x13+x25 <=1 
C500: x13+x26-y13_26 <=1 
C501: x13+x28-y13_28 <=1 
C502: x13+x31-y13_31 <=1 
C503: x13+x33 <=1 
C504: x13+x34 <=1 
C505: x13+x35 <=1 
C506: x13+x36-y13_36 <=1 
C507: x13+x37-y13_37 <=1 
C508: x13+x38 <=1 
C509: x13+x39 <=1 
C510: x13+x40-y13_40 <=1 
C511: x13+x41 <=1 
C512: x13+x42 <=1 
C513: x13+x43 <=1 
C514: x13+x44-y13_44 <=1 
C515: x13+x46 <=1 
C516: x13+x47-y13_47 <=1 
C517: x13+x49 <=1 
C518: x13+x50 <=1 
C519: x13+x55-y13_55 <=1 
C520: x13+x56 <=1 
C521: x13+x57-y13_57 <=1 
C522: x13+x59-y13_59 <=1 
C523: x13+x60-y13_60 <=1 
C524: x13+x64 <=1 
C525: x13+x66-y13_66 <=1 
C526: x14+x15 <=1 
C527: x14+x16-y14_16 <=1 
C528: x14+x17 <=1 
C529: x14+x18 <=1 
C530: x14+x19-y14_19 <=1 
C531: x14+x21-y14_21 <=1 
C532: x14+x24 <=1 
C533: x14+x25-y14_25 <=1 
C534: x14+x26 <=1 
C535: x14+x27 <=1 
C536: x14+x28 <=1 
C537: x14+x30 <=1 
C538: x14+x31-y14_31 <=1 
C539: x14+x32 <=1 
C540: x14+x33 <=1 
C541: x14+x35 <=1 
C542: x14+x36-y14_36 <=1 
C543: x14+x37 <=1 
C544: x14+x39-y14_39 <=1 
C545: x14+x43 <=1 
C546: x14+x45 <=1 
C547: x14+x46 <=1 
C548: x14+x47-y14_47 <=1 
C549: x14+x50 <=1 
C550: x14+x51 <=1 
C551: x14+x52 <=1 
C552: x14+x53 <=1 
C553: x14+x55-y14_55 <=1 
C554: x14+x59 <=1 
C555: x14+x60 <=1 
C556: x14+x61-y14_61 <=1 
C557: x14+x63-y14_63 <=1 
C558: x14+x65-y14_65 <=1 
C559: x14+x66-y14_66 <=1 
C560: x15+x17 <=1 
C561: x15+x18 <=1 
C562: x15+x19-y15_19 <=1 
C563: x15+x20 <=1 
C564: x15+x22-y15_22 <=1 
C565: x15+x24 <=1 
C566: x15+x26-y15_26 <=1 
C567: x15+x28 <=1 
C568: x15+x29-y15_29 <=1 
C569: x15+x30-y15_30 <=1 
C570: x15+x32 <=1 
C571: x15+x35-y15_35 <=1 
C572: x15+x36-y15_36 <=1 
C573: x15+x38-y15_38 <=1 
C574: x15+x40 <=1 
C575: x15+x45-y15_45 <=1 
C576: x15+x47-y15_47 <=1 
C577: x15+x48 <=1 
C578: x15+x49 <=1 
C579: x15+x50-y15_50 <=1 
C580: x15+x51 <=1 
C581: x15+x54 <=1 
C582: x15+x56 <=1 
C583: x15+x59 <=1 
C584: x15+x60 <=1 
C585: x15+x62-y15_62 <=1 
C586: x15+x63 <=1 
C587: x15+x66-y15_66 <=1 
C588: x16+x21-y16_21 <=1 
C589: x16+x23 <=1 
C590: x16+x25 <=1 
C591: x16+x26 <=1 
C592: x16+x28-y16_28 <=1 
C593: x16+x30 <=1 
C594: x16+x31-y16_31 <=1 
C595: x16+x32-y16_32 <=1 
C596: x16+x33 <=1 
C597: x16+x35 <=1 
C598: x16+x37-y16_37 <=1 
C599: x16+x38 <=1 
C600: x16+x39-y16_39 <=1 
C601: x16+x40 <=1 
C602: x16+x41 <=1 
C603: x16+x42 <=1 
C604: x16+x44-y16_44 <=1 
C605: x16+x45-y16_45 <=1 
C606: x16+x49-y16_49 <=1 
C607: x16+x52-y16_52 <=1 
C608: x16+x53 <=1 
C609: x16+x54 <=1 
C610: x16+x55-y16_55 <=1 
C611: x16+x57-y16_57 <=1 
C612: x16+x59 <=1 
C613: x16+x64-y16_64 <=1 
C614: x16+x66-y16_66 <=1 
C615: x16+x67-y16_67 <=1 
C616: x17+x19 <=1 
C617: x17+x21-y17_21 <=1 
C618: x17+x22-y17_22 <=1 
C619: x17+x25 <=1 
C620: x17+x28 <=1 
C621: x17+x30-y17_30 <=1 
C622: x17+x32 <=1 
C623: x17+x34 <=1 
C624: x17+x35-y17_35 <=1 
C625: x17+x38 <=1 
C626: x17+x40-y17_40 <=1 
C627: x17+x41-y17_41 <=1 
C628: x17+x42-y17_42 <=1 
C629: x17+x43 <=1 
C630: x17+x44-y17_44 <=1 
C631: x17+x46 <=1 
C632: x17+x47 <=1 
C633: x17+x48-y17_48 <=1 
C634: x17+x49-y17_49 <=1 
C635: x17+x50-y17_50 <=1 
C636: x17+x51 <=1 
C637: x17+x52 <=1 
C638: x17+x53-y17_53 <=1 
C639: x17+x54 <=1 
C640: x17+x55 <=1 
C641: x17+x56 <=1 
C642: x17+x59-y17_59 <=1 
C643: x17+x60 <=1 
C644: x17+x61 <=1 
C645: x17+x62 <=1 
C646: x17+x63-y17_63 <=1 
C647: x17+x64 <=1 
C648: x17+x67 <=1 
C649: x18+x19-y18_19 <=1 
C650: x18+x22-y18_22 <=1 
C651: x18+x23-y18_23 <=1 
C652: x18+x24 <=1 
C653: x18+x26 <=1 
C654: x18+x28-y18_28 <=1 
C655: x18+x29-y18_29 <=1 
C656: x18+x30-y18_30 <=1 
C657: x18+x31 <=1 
C658: x18+x32-y18_32 <=1 
C659: x18+x35-y18_35 <=1 
C660: x18+x36 <=1 
C661: x18+x37-y18_37 <=1 
C662: x18+x38-y18_38 <=1 
C663: x18+x39-y18_39 <=1 
C664: x18+x41-y18_41 <=1 
C665: x18+x42-y18_42 <=1 
C666: x18+x45-y18_45 <=1 
C667: x18+x46-y18_46 <=1 
C668: x18+x48 <=1 
C669: x18+x49-y18_49 <=1 
C670: x18+x52-y18_52 <=1 
C671: x18+x54 <=1 
C672: x18+x56-y18_56 <=1 
C673: x18+x58-y18_58 <=1 
C674: x18+x64 <=1 
C675: x19+x20-y19_20 <=1 
C676: x19+x22-y19_22 <=1 
C677: x19+x24 <=1 
C678: x19+x25-y19_25 <=1 
C679: x19+x26-y19_26 <=1 
C680: x19+x27-y19_27 <=1 
C681: x19+x33 <=1 
C682: x19+x34-y19_34 <=1 
C683: x19+x35 <=1 
C684: x19+x36 <=1 
C685: x19+x39-y19_39 <=1 
C686: x19+x40 <=1 
C687: x19+x41 <=1 
C688: x19+x45 <=1 
C689: x19+x47 <=1 
C690: x19+x50 <=1 
C691: x19+x51 <=1 
C692: x19+x52 <=1 
C693: x19+x53-y19_53 <=1 
C694: x19+x57-y19_57 <=1 
C695: x19+x60 <=1 
C696: x19+x61-y19_61 <=1 
C697: x19+x63 <=1 
C698: x19+x65-y19_65 <=1 
C699: x19+x67-y19_67 <=1 
C700: x20+x22 <=1 
C701: x20+x23 <=1 
C702: x20+x25-y20_25 <=1 
C703: x20+x27-y20_27 <=1 
C704: x20+x28 <=1 
C705: x20+x30-y20_30 <=1 
C706: x20+x32 <=1 
C707: x20+x33-y20_33 <=1 
C708: x20+x34-y20_34 <=1 
C709: x20+x38 <=1 
C710: x20+x42-y20_42 <=1 
C711: x20+x43-y20_43 <=1 
C712: x20+x44-y20_44 <=1 
C713: x20+x46 <=1 
C714: x20+x47 <=1 
C715: x20+x49 <=1 
C716: x20+x52-y20_52 <=1 
C717: x20+x54-y20_54 <=1 
C718: x20+x55 <=1 
C719: x20+x56-y20_56 <=1 
C720: x20+x57-y20_57 <=1 
C721: x20+x58-y20_58 <=1 
C722: x20+x61 <=1 
C723: x20+x62-y20_62 <=1 
C724: x20+x64 <=1 
C725: x20+x66 <=1 
C726: x20+x67-y20_67 <=1 
C727: x21+x27 <=1 
C728: x21+x28-y21_28 <=1 
C729: x21+x29 <=1 
C730: x21+x32 <=1 
C731: x21+x33 <=1 
C732: x21+x36 <=1 
C733: x21+x37-y21_37 <=1 
C734: x21+x38 <=1 
C735: x21+x39-y21_39 <=1 
C736: x21+x40 <=1 
C737: x21+x41 <=1 
C738: x21+x42 <=1 
C739: x21+x43 <=1 
C740: x21+x44-y21_44 <=1 
C741: x21+x45 <=1 
C742: x21+x48-y21_48 <=1 
C743: x21+x49 <=1 
C744: x21+x51 <=1 
C745: x21+x57-y21_57 <=1 
C746: x21+x58-y21_58 <=1 
C747: x21+x59 <=1 
C748: x21+x60-y21_60 <=1 
C749: x21+x61 <=1 
C750: x21+x62-y21_62 <=1 
C751: x21+x63 <=1 
C752: x21+x65 <=1 
C753: x21+x66-y21_66 <=1 
C754: x22+x27 <=1 
C755: x22+x28 <=1 
C756: x22+x30 <=1 
C757: x22+x32-y22_32 <=1 
C758: x22+x33-y22_33 <=1 
C759: x22+x35-y22_35 <=1 
C760: x22+x37-y22_37 <=1 
C761: x22+x38-y22_38 <=1 
C762: x22+x41 <=1 
C763: x22+x42 <=1 
C764: x22+x43-y22_43 <=1 
C765: x22+x44 <=1 
C766: x22+x46 <=1 
C767: x22+x48-y22_48 <=1 
C768: x22+x50-y22_50 <=1 
C769: x22+x51 <=1 
C770: x22+x52 <=1 
C771: x22+x54 <=1 
C772: x22+x55-y22_55 <=1 
C773: x22+x56 <=1 
C774: x22+x58 <=1 
C775: x22+x63-y22_63 <=1 
C776: x22+x65 <=1 
C777: x22+x67 <=1 
C778: x23+x25 <=1 
C779: x23+x30 <=1 
C780: x23+x32 <=1 
C781: x23+x33 <=1 
C782: x23+x34-y23_34 <=1 
C783: x23+x35 <=1 
C784: x23+x37 <=1 
C785: x23+x38 <=1 
C786: x23+x40 <=1 
C787: x23+x42-y23_42 <=1 
C788: x23+x45-y23_45 <=1 
C789: x23+x46-y23_46 <=1 
C790: x23+x48-y23_48 <=1 
C791: x23+x49-y23_49 <=1 
C792: x23+x50-y23_50 <=1 
C793: x23+x52 <=1 
C794: x23+x54 <=1 
C795: x23+x55 <=1 
C796: x23+x57 <=1 
C797: x23+x58 <=1 
C798: x23+x59-y23_59 <=1 
C799: x23+x62 <=1 
C800: x23+x66-y23_66 <=1 
C801: x23+x67 <=1 
C802: x24+x26-y24_26 <=1 
C803: x24+x27 <=1 
C804: x24+x28 <=1 
C805: x24+x29-y24_29 <=1 
C806: x24+x30-y24_30 <=1 
C807: x24+x31 <=1 
C808: x24+x32 <=1 
C809: x24+x33 <=1 
C810: x24+x34-y24_34 <=1 
C811: x24+x35 <=1 
C812: x24+x38-y24_38 <=1 
C813: x24+x39 <=1 
C814: x24+x40-y24_40 <=1 
C815: x24+x41-y24_41 <=1 
C816: x24+x43-y24_43 <=1 
C817: x24+x44 <=1 
C818: x24+x45-y24_45 <=1 
C819: x24+x47 <=1 
C820: x24+x50-y24_50 <=1 
C821: x24+x51-y24_51 <=1 
C822: x24+x52 <=1 
C823: x24+x54-y24_54 <=1 
C824: x24+x55 <=1 
C825: x24+x56 <=1 
C826: x24+x59-y24_59 <=1 
C827: x24+x60-y24_60 <=1 
C828: x24+x63 <=1 
C829: x24+x64 <=1 
C830: x24+x65 <=1 
C831: x24+x66-y24_66 <=1 
C832: x24+x67-y24_67 <=1 
C833: x25+x26-y25_26 <=1 
C834: x25+x27-y25_27 <=1 
C835: x25+x30-y25_30 <=1 
C836: x25+x32-y25_32 <=1 
C837: x25+x34 <=1 
C838: x25+x36-y25_36 <=1 
C839: x25+x37 <=1 
C840: x25+x38-y25_38 <=1 
C841: x25+x40 <=1 
C842: x25+x42 <=1 
C843: x25+x44-y25_44 <=1 
C844: x25+x45 <=1 
C845: x25+x46-y25_46 <=1 
C846: x25+x52-y25_52 <=1 
C847: x25+x53 <=1 
C848: x25+x54 <=1 
C849: x25+x55 <=1 
C850: x25+x57 <=1 
C851: x25+x59 <=1 
C852: x25+x60 <=1 
C853: x25+x62 <=1 
C854: x25+x63-y25_63 <=1 
C855: x25+x65-y25_65 <=1 
C856: x25+x66 <=1 
C857: x25+x67 <=1 
C858: x26+x28-y26_28 <=1 
C859: x26+x30-y26_30 <=1 
C860: x26+x32-y26_32 <=1 
C861: x26+x33-y26_33 <=1 
C862: x26+x34 <=1 
C863: x26+x35 <=1 
C864: x26+x37 <=1 
C865: x26+x39 <=1 
C866: x26+x40 <=1 
C867: x26+x41 <=1 
C868: x26+x44 <=1 
C869: x26+x46 <=1 
C870: x26+x47 <=1 
C871: x26+x48 <=1 
C872: x26+x49-y26_49 <=1 
C873: x26+x50-y26_50 <=1 
C874: x26+x51 <=1 
C875: x26+x52-y26_52 <=1 
C876: x26+x53 <=1 
C877: x26+x54-y26_54 <=1 
C878: x26+x56 <=1 
C879: x26+x58-y26_58 <=1 
C880: x26+x60-y26_60 <=1 
C881: x26+x61 <=1 
C882: x26+x62 <=1 
C883: x26+x66-y26_66 <=1 
C884: x26+x67-y26_67 <=1 
C885: x27+x28-y27_28 <=1 
C886: x27+x29 <=1 
C887: x27+x30-y27_30 <=1 
C888: x27+x33-y27_33 <=1 
C889: x27+x35 <=1 
C890: x27+x36-y27_36 <=1 
C891: x27+x37 <=1 
C892: x27+x38-y27_38 <=1 
C893: x27+x41-y27_41 <=1 
C894: x27+x42 <=1 
C895: x27+x43 <=1 
C896: x27+x45 <=1 
C897: x27+x46 <=1 
C898: x27+x47 <=1 
C899: x27+x48-y27_48 <=1 
C900: x27+x50-y27_50 <=1 
C901: x27+x51 <=1 
C902: x27+x52 <=1 
C903: x27+x54-y27_54 <=1 
C904: x27+x56 <=1 
C905: x27+x60 <=1 
C906: x27+x61-y27_61 <=1 
C907: x27+x62 <=1 
C908: x27+x63-y27_63 <=1 
C909: x27+x64 <=1 
C910: x27+x65 <=1 
C911: x27+x66 <=1 
C912: x28+x29-y28_29 <=1 
C913: x28+x31-y28_31 <=1 
C914: x28+x33-y28_33 <=1 
C915: x28+x35-y28_35 <=1 
C916: x28+x37 <=1 
C917: x28+x40-y28_40 <=1 
C918: x28+x41-y28_41 <=1 
C919: x28+x43 <=1 
C920: x28+x44-y28_44 <=1 
C921: x28+x48-y28_48 <=1 
C922: x28+x53 <=1 
C923: x28+x55 <=1 
C924: x28+x58 <=1 
C925: x28+x59-y28_59 <=1 
C926: x28+x64-y28_64 <=1 
C927: x28+x65-y28_65 <=1 
C928: x28+x66-y28_66 <=1 
C929: x28+x67 <=1 
C930: x29+x32-y29_32 <=1 
C931: x29+x33-y29_33 <=1 
C932: x29+x34 <=1 
C933: x29+x36 <=1 
C934: x29+x37 <=1 
C935: x29+x38 <=1 
C936: x29+x39-y29_39 <=1 
C937: x29+x42-y29_42 <=1 
C938: x29+x43-y29_43 <=1 
C939: x29+x45 <=1 
C940: x29+x46-y29_46 <=1 
C941: x29+x48-y29_48 <=1 
C942: x29+x49 <=1 
C943: x29+x51-y29_51 <=1 
C944: x29+x52-y29_52 <=1 
C945: x29+x54-y29_54 <=1 
C946: x29+x57-y29_57 <=1 
C947: x29+x58 <=1 
C948: x29+x59 <=1 
C949: x29+x63 <=1 
C950: x29+x66 <=1 
C951: x29+x67-y29_67 <=1 
C952: x30+x31 <=1 
C953: x30+x34 <=1 
C954: x30+x35 <=1 
C955: x30+x36-y30_36 <=1 
C956: x30+x38 <=1 
C957: x30+x40-y30_40 <=1 
C958: x30+x41 <=1 
C959: x30+x43-y30_43 <=1 
C960: x30+x44-y30_44 <=1 
C961: x30+x45-y30_45 <=1 
C962: x30+x46 <=1 
C963: x30+x47 <=1 
C964: x30+x48 <=1 
C965: x30+x49 <=1 
C966: x30+x51 <=1 
C967: x30+x52 <=1 
C968: x30+x54-y30_54 <=1 
C969: x30+x55-y30_55 <=1 
C970: x30+x56-y30_56 <=1 
C971: x30+x57 <=1 
C972: x30+x58 <=1 
C973: x30+x59-y30_59 <=1 
C974: x30+x62-y30_62 <=1 
C975: x30+x66 <=1 
C976: x30+x67 <=1 
C977: x31+x32-y31_32 <=1 
C978: x31+x34 <=1 
C979: x31+x35 <=1 
C980: x31+x36 <=1 
C981: x31+x37-y31_37 <=1 
C982: x31+x38-y31_38 <=1 
C983: x31+x39-y31_39 <=1 
C984: x31+x40 <=1 
C985: x31+x41 <=1 
C986: x31+x43-y31_43 <=1 
C987: x31+x44 <=1 
C988: x31+x45-y31_45 <=1 
C989: x31+x46 <=1 
C990: x31+x47-y31_47 <=1 
C991: x31+x50-y31_50 <=1 
C992: x31+x52 <=1 
C993: x31+x55-y31_55 <=1 
C994: x31+x56 <=1 
C995: x31+x57-y31_57 <=1 
C996: x31+x59 <=1 
C997: x31+x62 <=1 
C998: x31+x63 <=1 
C999: x31+x65 <=1 
C1000: x31+x67-y31_67 <=1 
C1001: x32+x33 <=1 
C1002: x32+x34-y32_34 <=1 
C1003: x32+x35 <=1 
C1004: x32+x37-y32_37 <=1 
C1005: x32+x41 <=1 
C1006: x32+x43 <=1 
C1007: x32+x45 <=1 
C1008: x32+x49-y32_49 <=1 
C1009: x32+x50 <=1 
C1010: x32+x51-y32_51 <=1 
C1011: x32+x53-y32_53 <=1 
C1012: x32+x56-y32_56 <=1 
C1013: x32+x57-y32_57 <=1 
C1014: x32+x58-y32_58 <=1 
C1015: x32+x59 <=1 
C1016: x32+x63 <=1 
C1017: x32+x64 <=1 
C1018: x32+x67-y32_67 <=1 
C1019: x33+x36 <=1 
C1020: x33+x37-y33_37 <=1 
C1021: x33+x38-y33_38 <=1 
C1022: x33+x39-y33_39 <=1 
C1023: x33+x40 <=1 
C1024: x33+x41-y33_41 <=1 
C1025: x33+x44 <=1 
C1026: x33+x45 <=1 
C1027: x33+x47-y33_47 <=1 
C1028: x33+x48-y33_48 <=1 
C1029: x33+x50 <=1 
C1030: x33+x53 <=1 
C1031: x33+x56-y33_56 <=1 
C1032: x33+x58-y33_58 <=1 
C1033: x33+x59 <=1 
C1034: x33+x60-y33_60 <=1 
C1035: x33+x65-y33_65 <=1 
C1036: x33+x67-y33_67 <=1 
C1037: x34+x38-y34_38 <=1 
C1038: x34+x39 <=1 
C1039: x34+x43-y34_43 <=1 
C1040: x34+x44 <=1 
C1041: x34+x45-y34_45 <=1 
C1042: x34+x46-y34_46 <=1 
C1043: x34+x47 <=1 
C1044: x34+x48-y34_48 <=1 
C1045: x34+x50 <=1 
C1046: x34+x51 <=1 
C1047: x34+x52-y34_52 <=1 
C1048: x34+x53 <=1 
C1049: x34+x54 <=1 
C1050: x34+x55-y34_55 <=1 
C1051: x34+x64 <=1 
C1052: x34+x65 <=1 
C1053: x34+x66 <=1 
C1054: x34+x67 <=1 
C1055: x35+x36-y35_36 <=1 
C1056: x35+x37 <=1 
C1057: x35+x38-y35_38 <=1 
C1058: x35+x39 <=1 
C1059: x35+x41 <=1 
C1060: x35+x42-y35_42 <=1 
C1061: x35+x43-y35_43 <=1 
C1062: x35+x44 <=1 
C1063: x35+x47 <=1 
C1064: x35+x49-y35_49 <=1 
C1065: x35+x52 <=1 
C1066: x35+x54 <=1 
C1067: x35+x56 <=1 
C1068: x35+x57 <=1 
C1069: x35+x59 <=1 
C1070: x35+x60-y35_60 <=1 
C1071: x35+x62 <=1 
C1072: x35+x63 <=1 
C1073: x35+x64 <=1 
C1074: x35+x65-y35_65 <=1 
C1075: x35+x66-y35_66 <=1 
C1076: x36+x39 <=1 
C1077: x36+x40 <=1 
C1078: x36+x41 <=1 
C1079: x36+x42 <=1 
C1080: x36+x43-y36_43 <=1 
C1081: x36+x47 <=1 
C1082: x36+x50 <=1 
C1083: x36+x51-y36_51 <=1 
C1084: x36+x52-y36_52 <=1 
C1085: x36+x53 <=1 
C1086: x36+x54 <=1 
C1087: x36+x62-y36_62 <=1 
C1088: x36+x63-y36_63 <=1 
C1089: x36+x64 <=1 
C1090: x36+x67 <=1 
C1091: x37+x39 <=1 
C1092: x37+x40-y37_40 <=1 
C1093: x37+x41-y37_41 <=1 
C1094: x37+x42 <=1 
C1095: x37+x44-y37_44 <=1 
C1096: x37+x47-y37_47 <=1 
C1097: x37+x48-y37_48 <=1 
C1098: x37+x49-y37_49 <=1 
C1099: x37+x50 <=1 
C1100: x37+x52 <=1 
C1101: x37+x53 <=1 
C1102: x37+x54-y37_54 <=1 
C1103: x37+x55-y37_55 <=1 
C1104: x37+x56 <=1 
C1105: x37+x57-y37_57 <=1 
C1106: x37+x58 <=1 
C1107: x37+x59-y37_59 <=1 
C1108: x37+x60-y37_60 <=1 
C1109: x37+x63-y37_63 <=1 
C1110: x37+x64 <=1 
C1111: x37+x65 <=1 
C1112: x37+x66 <=1 
C1113: x37+x67 <=1 
C1114: x38+x39 <=1 
C1115: x38+x41-y38_41 <=1 
C1116: x38+x42 <=1 
C1117: x38+x44 <=1 
C1118: x38+x47-y38_47 <=1 
C1119: x38+x48 <=1 
C1120: x38+x49-y38_49 <=1 
C1121: x38+x50 <=1 
C1122: x38+x52 <=1 
C1123: x38+x54 <=1 
C1124: x38+x55-y38_55 <=1 
C1125: x38+x56-y38_56 <=1 
C1126: x38+x57 <=1 
C1127: x38+x59 <=1 
C1128: x38+x61 <=1 
C1129: x38+x62-y38_62 <=1 
C1130: x38+x64 <=1 
C1131: x38+x66-y38_66 <=1 
C1132: x39+x40-y39_40 <=1 
C1133: x39+x41-y39_41 <=1 
C1134: x39+x43 <=1 
C1135: x39+x46 <=1 
C1136: x39+x49-y39_49 <=1 
C1137: x39+x50 <=1 
C1138: x39+x51-y39_51 <=1 
C1139: x39+x53-y39_53 <=1 
C1140: x39+x56 <=1 
C1141: x39+x57 <=1 
C1142: x39+x58 <=1 
C1143: x39+x62 <=1 
C1144: x39+x63 <=1 
C1145: x39+x64 <=1 
C1146: x39+x65 <=1 
C1147: x39+x66 <=1 
C1148: x39+x67-y39_67 <=1 
C1149: x40+x42 <=1 
C1150: x40+x43 <=1 
C1151: x40+x44-y40_44 <=1 
C1152: x40+x46 <=1 
C1153: x40+x47 <=1 
C1154: x40+x49 <=1 
C1155: x40+x51-y40_51 <=1 
C1156: x40+x52-y40_52 <=1 
C1157: x40+x53 <=1 
C1158: x40+x55 <=1 
C1159: x40+x56-y40_56 <=1 
C1160: x40+x57 <=1 
C1161: x40+x59-y40_59 <=1 
C1162: x40+x61 <=1 
C1163: x40+x64-y40_64 <=1 
C1164: x40+x65-y40_65 <=1 
C1165: x40+x66 <=1 
C1166: x40+x67 <=1 
C1167: x41+x43 <=1 
C1168: x41+x45 <=1 
C1169: x41+x48 <=1 
C1170: x41+x50-y41_50 <=1 
C1171: x41+x52-y41_52 <=1 
C1172: x41+x53-y41_53 <=1 
C1173: x41+x54-y41_54 <=1 
C1174: x41+x55-y41_55 <=1 
C1175: x41+x56 <=1 
C1176: x41+x57-y41_57 <=1 
C1177: x41+x58-y41_58 <=1 
C1178: x41+x59-y41_59 <=1 
C1179: x41+x61 <=1 
C1180: x41+x65-y41_65 <=1 
C1181: x41+x67 <=1 
C1182: x42+x45-y42_45 <=1 
C1183: x42+x46 <=1 
C1184: x42+x54-y42_54 <=1 
C1185: x42+x55-y42_55 <=1 
C1186: x42+x57-y42_57 <=1 
C1187: x42+x59-y42_59 <=1 
C1188: x42+x60-y42_60 <=1 
C1189: x42+x61-y42_61 <=1 
C1190: x42+x62 <=1 
C1191: x42+x63-y42_63 <=1 
C1192: x42+x65-y42_65 <=1 
C1193: x42+x66 <=1 
C1194: x43+x48 <=1 
C1195: x43+x52-y43_52 <=1 
C1196: x43+x53 <=1 
C1197: x43+x54 <=1 
C1198: x43+x55-y43_55 <=1 
C1199: x43+x56-y43_56 <=1 
C1200: x43+x57-y43_57 <=1 
C1201: x43+x58 <=1 
C1202: x43+x59 <=1 
C1203: x43+x60-y43_60 <=1 
C1204: x43+x61 <=1 
C1205: x43+x63-y43_63 <=1 
C1206: x43+x64 <=1 
C1207: x43+x65-y43_65 <=1 
C1208: x43+x66 <=1 
C1209: x43+x67 <=1 
C1210: x44+x47-y44_47 <=1 
C1211: x44+x48 <=1 
C1212: x44+x50 <=1 
C1213: x44+x53 <=1 
C1214: x44+x54 <=1 
C1215: x44+x55 <=1 
C1216: x44+x56 <=1 
C1217: x44+x57-y44_57 <=1 
C1218: x44+x59-y44_59 <=1 
C1219: x44+x60 <=1 
C1220: x44+x61-y44_61 <=1 
C1221: x44+x62 <=1 
C1222: x44+x63 <=1 
C1223: x44+x66-y44_66 <=1 
C1224: x45+x49 <=1 
C1225: x45+x51 <=1 
C1226: x45+x53-y45_53 <=1 
C1227: x45+x55-y45_55 <=1 
C1228: x45+x56 <=1 
C1229: x45+x59-y45_59 <=1 
C1230: x45+x61 <=1 
C1231: x45+x63 <=1 
C1232: x45+x65-y45_65 <=1 
C1233: x46+x47 <=1 
C1234: x46+x48-y46_48 <=1 
C1235: x46+x49-y46_49 <=1 
C1236: x46+x51-y46_51 <=1 
C1237: x46+x52-y46_52 <=1 
C1238: x46+x53-y46_53 <=1 
C1239: x46+x54 <=1 
C1240: x46+x55-y46_55 <=1 
C1241: x46+x56 <=1 
C1242: x46+x58 <=1 
C1243: x46+x60-y46_60 <=1 
C1244: x46+x61-y46_61 <=1 
C1245: x46+x65 <=1 
C1246: x46+x67 <=1 
C1247: x47+x48-y47_48 <=1 
C1248: x47+x51 <=1 
C1249: x47+x52 <=1 
C1250: x47+x55-y47_55 <=1 
C1251: x47+x57 <=1 
C1252: x47+x58-y47_58 <=1 
C1253: x47+x59-y47_59 <=1 
C1254: x47+x60-y47_60 <=1 
C1255: x47+x61 <=1 
C1256: x47+x65-y47_65 <=1 
C1257: x47+x67-y47_67 <=1 
C1258: x48+x49 <=1 
C1259: x48+x52 <=1 
C1260: x48+x53-y48_53 <=1 
C1261: x48+x55-y48_55 <=1 
C1262: x48+x56-y48_56 <=1 
C1263: x48+x61-y48_61 <=1 
C1264: x48+x63 <=1 
C1265: x48+x64 <=1 
C1266: x48+x66 <=1 
C1267: x49+x50 <=1 
C1268: x49+x52 <=1 
C1269: x49+x53 <=1 
C1270: x49+x54 <=1 
C1271: x49+x57-y49_57 <=1 
C1272: x49+x58-y49_58 <=1 
C1273: x49+x59-y49_59 <=1 
C1274: x49+x60-y49_60 <=1 
C1275: x49+x61-y49_61 <=1 
C1276: x49+x63-y49_63 <=1 
C1277: x49+x65 <=1 
C1278: x49+x66-y49_66 <=1 
C1279: x50+x51 <=1 
C1280: x50+x52 <=1 
C1281: x50+x54-y50_54 <=1 
C1282: x50+x56-y50_56 <=1 
C1283: x50+x57 <=1 
C1284: x50+x58 <=1 
C1285: x50+x59-y50_59 <=1 
C1286: x50+x62-y50_62 <=1 
C1287: x50+x63 <=1 
C1288: x50+x64 <=1 
C1289: x50+x65 <=1 
C1290: x50+x66 <=1 
C1291: x50+x67 <=1 
C1292: x51+x52 <=1 
C1293: x51+x53 <=1 
C1294: x51+x54-y51_54 <=1 
C1295: x51+x55-y51_55 <=1 
C1296: x51+x57-y51_57 <=1 
C1297: x51+x58-y51_58 <=1 
C1298: x51+x61-y51_61 <=1 
C1299: x51+x62-y51_62 <=1 
C1300: x51+x64 <=1 
C1301: x51+x65-y51_65 <=1 
C1302: x51+x66-y51_66 <=1 
C1303: x52+x53 <=1 
C1304: x52+x57-y52_57 <=1 
C1305: x52+x58-y52_58 <=1 
C1306: x52+x59-y52_59 <=1 
C1307: x52+x60-y52_60 <=1 
C1308: x52+x61 <=1 
C1309: x52+x63-y52_63 <=1 
C1310: x52+x66-y52_66 <=1 
C1311: x53+x54-y53_54 <=1 
C1312: x53+x55-y53_55 <=1 
C1313: x53+x57 <=1 
C1314: x53+x59-y53_59 <=1 
C1315: x53+x60-y53_60 <=1 
C1316: x53+x61-y53_61 <=1 
C1317: x53+x62 <=1 
C1318: x53+x63 <=1 
C1319: x53+x66-y53_66 <=1 
C1320: x53+x67-y53_67 <=1 
C1321: x54+x56-y54_56 <=1 
C1322: x54+x57-y54_57 <=1 
C1323: x54+x58-y54_58 <=1 
C1324: x54+x59-y54_59 <=1 
C1325: x54+x60-y54_60 <=1 
C1326: x54+x61-y54_61 <=1 
C1327: x54+x63-y54_63 <=1 
C1328: x54+x64 <=1 
C1329: x55+x56-y55_56 <=1 
C1330: x55+x58 <=1 
C1331: x55+x59-y55_59 <=1 
C1332: x55+x61-y55_61 <=1 
C1333: x55+x62 <=1 
C1334: x55+x66-y55_66 <=1 
C1335: x56+x57 <=1 
C1336: x56+x58 <=1 
C1337: x56+x59 <=1 
C1338: x56+x62-y56_62 <=1 
C1339: x56+x63 <=1 
C1340: x56+x64 <=1 
C1341: x56+x66-y56_66 <=1 
C1342: x57+x58 <=1 
C1343: x57+x59 <=1 
C1344: x57+x62 <=1 
C1345: x57+x63-y57_63 <=1 
C1346: x57+x64-y57_64 <=1 
C1347: x57+x65 <=1 
C1348: x58+x59 <=1 
C1349: x58+x62-y58_62 <=1 
C1350: x58+x66-y58_66 <=1 
C1351: x58+x67-y58_67 <=1 
C1352: x59+x60 <=1 
C1353: x59+x61-y59_61 <=1 
C1354: x59+x63-y59_63 <=1 
C1355: x59+x64 <=1 
C1356: x59+x65 <=1 
C1357: x60+x66-y60_66 <=1 
C1358: x61+x62-y61_62 <=1 
C1359: x61+x63-y61_63 <=1 
C1360: x61+x65 <=1 
C1361: x61+x67-y61_67 <=1 
C1362: x62+x63 <=1 
C1363: x62+x65-y62_65 <=1 
C1364: x62+x66-y62_66 <=1 
C1365: x62+x67-y62_67 <=1 
C1366: x63+x65-y63_65 <=1 
C1367: x63+x66 <=1 
C1368: x63+x67 <=1 
C1369: x64+x66 <=1 
C1370: x64+x67-y64_67 <=1 
C1371: x65+x67-y65_67 <=1 
C1372: x66+x67 <=1 

binary
x0
x1
x2
x3
x4
x5
x6
x7
x8
x9
x10
x11
x12
x13
x14
x15
x16
x17
x18
x19
x20
x21
x22
x23
x24
x25
x26
x27
x28
x29
x30
x31
x32
x33
x34
x35
x36
x37
x38
x39
x40
x41
x42
x43
x44
x45
x46
x47
x48
x49
x50
x51
x52
x53
x54
x55
x56
x57
x58
x59
x60
x61
x62
x63
x64
x65
x66
x67
