problem_generation/data/GISP/train/er_n=68_m=1372_p=0.60_SET2_setparam=100.00_alpha=0.50_912.sol
objective value:                                 1176
x5                                                  1 	(obj:100)
x12                                                 1 	(obj:100)
x29                                                 1 	(obj:100)
x31                                                 1 	(obj:100)
x42                                                 1 	(obj:100)
x47                                                 1 	(obj:100)
x48                                                 1 	(obj:100)
x50                                                 1 	(obj:100)
x53                                                 1 	(obj:100)
x54                                                 1 	(obj:100)
x55                                                 1 	(obj:100)
x60                                                 1 	(obj:100)
y47_48                                              1 	(obj:-1)
y29_54                                              1 	(obj:-1)
y48_53                                              1 	(obj:-1)
y54_60                                              1 	(obj:-1)
y12_53                                              1 	(obj:-1)
y12_48                                              1 	(obj:-1)
y31_47                                              1 	(obj:-1)
y5_12                                               1 	(obj:-1)
y12_42                                              1 	(obj:-1)
y47_60                                              1 	(obj:-1)
y29_48                                              1 	(obj:-1)
y47_55                                              1 	(obj:-1)
y29_42                                              1 	(obj:-1)
y31_55                                              1 	(obj:-1)
y5_29                                               1 	(obj:-1)
y42_60                                              1 	(obj:-1)
y31_50                                              1 	(obj:-1)
y42_55                                              1 	(obj:-1)
y53_60                                              1 	(obj:-1)
y50_54                                              1 	(obj:-1)
y53_55                                              1 	(obj:-1)
y42_54                                              1 	(obj:-1)
y53_54                                              1 	(obj:-1)
y48_55                                              1 	(obj:-1)
